p wcnf 16 158 17
1 1 0
1 2 0
1 3 0
1 4 0
1 5 0
1 6 0
1 7 0
1 8 0
1 9 0
1 10 0
1 11 0
1 12 0
1 13 0
1 14 0
1 15 0
1 16 0
17 -6 -3 0
17 -7 -4 -3 0
17 -9 -8 -7 -4 -3 0
17 -3 -4 -2 0
17 -10 -4 -2 0
17 -2 -1 0
17 -11 -14 -2 -1 0
17 -10 -15 -12 -2 -1 0
17 -12 -6 -1 0
17 -16 -3 -1 0
17 -2 -3 -1 0
17 -3 -1 0
17 -6 -11 -14 -3 -1 0
17 -2 -16 -5 -3 -1 0
17 -14 -5 -3 -1 0
17 -7 -3 -1 0
17 -14 -11 -2 -7 -4 -3 -1 0
17 -8 -2 -7 -4 -3 -1 0
17 -11 -14 -8 -2 -7 -4 -3 -1 0
17 -7 -13 -3 -1 0
17 -16 -6 -2 -7 -13 -3 -1 0
17 -6 -2 -7 -13 -3 -1 0
17 -15 -7 -13 -3 -1 0
17 -6 -13 -12 -3 -1 0
17 -5 -16 -6 -13 -12 -3 -1 0
17 -15 -10 -6 -13 -12 -3 -1 0
17 -16 -5 -15 -10 -6 -13 -12 -3 -1 0
17 -10 -4 -12 -3 -1 0
17 -4 -12 -3 -1 0
17 -14 -5 -4 -12 -3 -1 0
17 -13 -7 -4 -12 -3 -1 0
17 -9 -8 -13 -7 -4 -12 -3 -1 0
17 -10 -8 -13 -7 -4 -12 -3 -1 0
17 -15 -9 -10 -8 -13 -7 -4 -12 -3 -1 0
17 -8 4 0
17 -4 16 0
17 -16 6 0
17 -9 7 0
17 -7 5 0
17 -5 3 0
17 -10 12 0
17 -12 11 0
17 -11 2 0
17 -15 13 0
17 -13 14 0
17 -14 1 0
17 15 -11 2 0
17 -5 10 3 0
17 11 -12 0
17 11 -10 0
17 8 -14 1 0
17 -14 10 1 0
17 13 10 -15 0
17 -2 13 -15 0
17 -1 12 -10 0
17 -5 8 3 0
17 -7 5 0
17 -7 3 0
17 -1 7 -9 0
17 -5 -6 3 0
17 -3 13 -15 0
17 -11 -1 2 0
17 -5 -1 3 0
17 -4 16 0
17 -4 6 0
17 -3 12 -10 0
17 -16 -2 6 0
17 -16 9 6 0
17 -16 15 6 0
17 15 4 -8 0
17 -14 9 1 0
17 8 13 -15 0
17 -16 -4 6 0
17 -6 -4 16 0
17 -11 10 2 0
17 7 -9 0
17 -14 15 1 0
17 -1 4 -8 0
17 8 -16 6 0
17 14 -15 0
17 14 -13 0
17 -13 14 0
17 -13 1 0
17 4 -8 0
17 -1 13 -15 0
17 -3 -16 6 0
17 5 -7 0
17 5 -9 0
17 -16 -1 6 0
17 7 -2 -9 0
17 -11 9 2 0
17 4 9 -8 0
17 16 -8 0
17 16 -4 0
17 -14 -2 1 0
17 -2 4 -8 0
17 -6 4 -8 0
17 -6 7 -9 0
17 15 12 -10 0
17 -12 -11 2 0
17 -12 -2 11 0
17 12 -10 0
17 12 9 -10 0
17 8 16 -4 0
17 4 16 -8 0
17 -12 11 0
17 -12 2 0
17 13 -15 0
17 15 14 -13 0
17 14 13 -15 0
17 -16 6 0
17 8 12 -10 0
17 8 -11 2 0
17 7 10 -9 0
17 -3 4 -8 0
17 -3 7 -9 0
17 -5 9 3 0
17 12 11 -10 0
17 11 10 -12 0
17 -11 2 0
17 -5 -2 3 0
17 4 10 -8 0
17 -5 15 3 0
17 5 7 -9 0
17 5 9 -7 0
17 8 7 -9 0
17 -5 3 0
17 -14 1 0
17 -14 -6 1 0
17 -3 -14 1 0
17 -14 -13 1 0
17 -1 -13 14 0
17 -5 -7 3 0
17 -3 -7 5 0
17 13 9 -15 0
17 -6 12 -10 0
17 15 7 -9 0
17 -3 -11 2 0
17 -16 10 6 0
17 -6 13 -15 0
17 -11 -6 2 0
17 -2 12 -10 0
